SPARKNaCl/why3-z3/sparknacl.adb_1377_15_index_check2_1.smt2
;; produced by z3_gnatprove.drv ;;
(set-info :smt-lib-version 2.5)
(set-info :source |VC generated by SPARK 2014|)
(set-info :category industrial)
(set-info :status unknown)
;;; generated by SMT-LIB2 driver
;;; SMT-LIB2 driver: bit-vectors, common part
;;; SMT-LIB2: integer arithmetic
(declare-datatypes ()
  ((int__ref (int__refqtmk (int__content Int)))))

(declare-sort integer 0)

;; "integer'int"
(declare-fun integerqtint (integer) Int)

;; "integer'axiom"
(assert
  (forall ((i integer))
    (and
      (<= (- 2147483648) (integerqtint i))
      (<= (integerqtint i) 2147483647))))

;; "in_range"
(define-fun in_range ((x Int)) Bool
  (and (<= (- 2147483648) x) (<= x 2147483647)))

(declare-sort character 0)

;; "in_range"
(define-fun in_range1 ((x Int)) Bool
  (and (<= 0 x) (<= x 255)))

;; "to_rep"
(declare-fun to_rep (character) Int)

;; "of_rep"
(declare-fun of_rep (Int) character)

;; "inversion_axiom"
(assert
  (forall ((x character))
    (! (= (of_rep (to_rep x)) x) :pattern ((to_rep x)) )))

;; "range_axiom"
(assert
  (forall ((x character)) (! (in_range1 (to_rep x)) :pattern ((to_rep x)) )))

;; "coerce_axiom"
(assert
  (forall ((x Int))
    (! (=> (in_range1 x) (= (to_rep (of_rep x)) x)) :pattern ((to_rep
                                                                (of_rep x))) )))

(declare-sort map1 0)

;; "has_bounds"
(declare-fun has_bounds (map1
  Int
  Int) Bool)

;; "get"
(declare-fun get (map1
  Int) character)

;; "in_range"
(define-fun in_range2 ((x Int)) Bool
  (and (<= 1 x) (<= x 2147483647)))

;; "to_rep"
(define-fun to_rep1 ((x integer)) Int
  (integerqtint x))

;; "of_rep"
(declare-fun of_rep1 (Int) integer)

;; "inversion_axiom"
(assert
  (forall ((x integer))
    (! (= (of_rep1 (to_rep1 x)) x) :pattern ((to_rep1 x)) )))

;; "range_axiom"
(assert
  (forall ((x integer)) (! (in_range (to_rep1 x)) :pattern ((to_rep1 x)) )))

;; "coerce_axiom"
(assert
  (forall ((x Int))
    (! (=> (in_range x) (= (to_rep1 (of_rep1 x)) x)) :pattern ((to_rep1
                                                                 (of_rep1 x))) )))

(declare-datatypes ()
  ((t (tqtmk (rec__first integer)(rec__last integer)))))

;; "dynamic_property"
(define-fun dynamic_property ((range_first Int) (range_last Int) (low Int) (high Int)) Bool
  (and
    (in_range low)
    (and
      (in_range high)
      (=> (<= low high) (and (in_range2 low) (in_range2 high))))))

(declare-datatypes ()
  ((us_t (us_tqtmk (elts map1)(rt t)))))

;; "to_array"
(define-fun to_array ((a us_t)) map1
  (elts a))

;; "first"
(define-fun first ((a us_t)) Int
  (to_rep1 (rec__first (rt a))))

;; "last"
(define-fun last ((a us_t)) Int
  (to_rep1 (rec__last (rt a))))

;; "length"
(define-fun length ((a us_t)) Int
  (ite (<= (first a) (last a)) (+ (- (last a) (first a)) 1) 0))

;; "well_formed"
(define-fun well_formed ((a us_t)) Bool
  (has_bounds
    (elts a)
    (to_rep1 (rec__first (rt a)))
    (to_rep1 (rec__last (rt a)))))

;; "dynamic_invariant"
(define-fun dynamic_invariant ((temp___expr_110 us_t) (temp___is_init_106 Bool) (temp___skip_constant_107 Bool) (temp___do_toplevel_108 Bool) (temp___do_typ_inv_109 Bool)) Bool
  (and
    (=>
      (not (= temp___skip_constant_107 true))
      (dynamic_property
        1
        2147483647
        (first temp___expr_110)
        (last temp___expr_110)))
    (well_formed temp___expr_110)))

(declare-sort tinteger_32B 0)

;; "tinteger_32B'int"
(declare-fun tinteger_32Bqtint (tinteger_32B) Int)

;; "tinteger_32B'axiom"
(assert
  (forall ((i tinteger_32B))
    (and
      (<= (- 2147483648) (tinteger_32Bqtint i))
      (<= (tinteger_32Bqtint i) 2147483647))))

;; "in_range"
(define-fun in_range3 ((x Int)) Bool
  (and (<= (- 2147483648) x) (<= x 2147483647)))

(declare-sort byte 0)

;; "to_rep"
(define-fun to_rep2 ((x tinteger_32B)) Int
  (tinteger_32Bqtint x))

;; "of_rep"
(declare-fun of_rep2 (Int) tinteger_32B)

;; "inversion_axiom"
(assert
  (forall ((x tinteger_32B))
    (! (= (of_rep2 (to_rep2 x)) x) :pattern ((to_rep2 x)) )))

;; "range_axiom"
(assert
  (forall ((x tinteger_32B))
    (! (in_range3 (to_rep2 x)) :pattern ((to_rep2 x)) )))

;; "coerce_axiom"
(assert
  (forall ((x Int))
    (! (=> (in_range3 x) (= (to_rep2 (of_rep2 x)) x)) :pattern ((to_rep2
                                                                  (of_rep2 x))) )))

;; "in_range"
(define-fun in_range4 ((x Int)) Bool
  (and (<= 0 x) (<= x 2147483647)))

;; "to_rep"
(declare-fun to_rep3 (byte) (_ BitVec 8))

;; "of_rep"
(declare-fun of_rep3 ((_ BitVec 8)) byte)

;; "inversion_axiom"
(assert
  (forall ((x byte)) (! (= (of_rep3 (to_rep3 x)) x) :pattern ((to_rep3 x)) )))

;; "range_axiom"
(assert true)

;; "coerce_axiom"
(assert
  (forall ((x (_ BitVec 8)))
    (! (= (to_rep3 (of_rep3 x)) x) :pattern ((to_rep3 (of_rep3 x))) )))

(declare-sort map2 0)

(declare-datatypes ()
  ((map__ref (map__refqtmk (map__content map2)))))

;; "has_bounds"
(declare-fun has_bounds1 (map2
  Int
  Int) Bool)

;; "get"
(declare-fun get1 (map2
  Int) byte)

(declare-datatypes ()
  ((t1 (tqtmk1 (rec__first1 tinteger_32B)(rec__last1 tinteger_32B)))))

;; "mk"
(declare-fun mk (Int
  Int) t1)

;; "mk_def"
(assert
  (forall ((f Int) (l Int))
    (! (=>
         (in_range3 f)
         (=>
           (in_range3 l)
           (and
             (= (to_rep2 (rec__first1 (mk f l))) f)
             (= (to_rep2 (rec__last1 (mk f l))) l)))) :pattern ((mk f l)) )))

;; "dynamic_property"
(define-fun dynamic_property1 ((range_first Int) (range_last Int) (low Int) (high Int)) Bool
  (and
    (in_range3 low)
    (and
      (in_range3 high)
      (=> (<= low high) (and (in_range4 low) (in_range4 high))))))

(declare-datatypes ()
  ((us_t1 (us_tqtmk1 (elts1 map2)(rt1 t1)))))

;; "of_array"
(define-fun of_array ((a map2) (f Int) (l Int)) us_t1
  (us_tqtmk1 a (mk f l)))

;; "first"
(define-fun first1 ((a us_t1)) Int
  (to_rep2 (rec__first1 (rt1 a))))

;; "last"
(define-fun last1 ((a us_t1)) Int
  (to_rep2 (rec__last1 (rt1 a))))

;; "well_formed"
(define-fun well_formed1 ((a us_t1)) Bool
  (has_bounds1
    (elts1 a)
    (to_rep2 (rec__first1 (rt1 a)))
    (to_rep2 (rec__last1 (rt1 a)))))

(declare-const s us_t)

(declare-const ret__first tinteger_32B)

(declare-const ret__last tinteger_32B)

;; "dynamic_invariant"
(define-fun dynamic_invariant1 ((temp___expr_1337 us_t1) (temp___is_init_1333 Bool) (temp___skip_constant_1334 Bool) (temp___do_toplevel_1335 Bool) (temp___do_typ_inv_1336 Bool)) Bool
  (and
    (=>
      (not (= temp___skip_constant_1334 true))
      (and
        (and
          (dynamic_property1
            0
            (- (length s) 1)
            (first1 temp___expr_1337)
            (last1 temp___expr_1337))
          (= (first1 temp___expr_1337) 0))
        (= (last1 temp___expr_1337) (- (length s) 1))))
    (well_formed1 temp___expr_1337)))

;; "default_initial_assumption"
(define-fun default_initial_assumption ((temp___expr_1339 us_t1) (temp___skip_top_level_1340 Bool)) Bool
  (and
    (= (first1 temp___expr_1339) 0)
    (= (last1 temp___expr_1339) (- (length s) 1))))

(declare-const ret map2)

;; "ret'unused"
(define-fun retqtunused () map__ref
  (map__refqtmk ret))

;; "Assume"
(assert (dynamic_invariant s true false true true))

;; "Assume"
(assert (<= 1 (length s)))

;; "Assume"
(assert
  (default_initial_assumption
    (of_array ret (to_rep2 ret__first) (to_rep2 ret__last))
    false))

;; "Assume"
(assert
  (dynamic_invariant1
    (of_array ret (to_rep2 ret__first) (to_rep2 ret__last))
    false
    false
    true
    true))

(declare-const o Int)

;; "Ensures"
(assert (= (to_rep2 ret__last) o))

;; "to_rep'result'unused"
(define-fun to_repqtresultqtunused () Int
  o)

(declare-const o1 Int)

;; "Ensures"
(assert (= (to_rep2 ret__first) o1))

;; "to_rep'result'unused"
(define-fun to_repqtresultqtunused1 () Int
  o1)

;; "map__content'result'unused"
(define-fun map__contentqtresultqtunused () map2
  ret)

;; "of_array'result'unused"
(define-fun of_arrayqtresultqtunused () us_t1
  (of_array ret o1 o))

(declare-const temp___1454 Int)

;; "Ensures"
(assert (= (to_rep2 ret__last) temp___1454))

;; "to_rep'result'unused"
(define-fun to_repqtresultqtunused2 () Int
  temp___1454)

(declare-const i Int)

;; "i'unused"
(define-fun iqtunused () int__ref
  (int__refqtmk i))

;; "H"
(assert (= i 0))

;; "int__content'result'unused"
(define-fun int__contentqtresultqtunused () Int
  i)

;; "o"
(define-fun o2 () Bool
  (ite (<= i temp___1454) true false))

;; "infix <='result'unused"
(define-fun infix_lseqqtresultqtunused () Bool
  o2)

;; "int__content'result'unused"
(define-fun int__contentqtresultqtunused1 () Int
  i)

;; "o"
(define-fun o3 () Bool
  (ite (<= 0 i) true false))

;; "infix <='result'unused"
(define-fun infix_lseqqtresultqtunused1 () Bool
  o3)

;; "o"
(define-fun o4 () Bool
  (and o3 o2))

;; "andb'result'unused"
(define-fun andbqtresultqtunused () Bool
  o4)

;; "H"
(assert (= o4 true))

(declare-const o5 Int)

;; "Ensures"
(assert (= (to_rep2 ret__last) o5))

;; "to_rep'result'unused"
(define-fun to_repqtresultqtunused3 () Int
  o5)

(declare-const o6 Int)

;; "Ensures"
(assert (= (to_rep2 ret__first) o6))

;; "to_rep'result'unused"
(define-fun to_repqtresultqtunused4 () Int
  o6)

;; "map__content'result'unused"
(define-fun map__contentqtresultqtunused1 () map2
  ret)

;; "temp___loop_entry_1461"
(define-fun temp___loop_entry_1461 () us_t1
  (of_array ret o6 o5))

;; "of_array'result'unused"
(define-fun of_arrayqtresultqtunused1 () us_t1
  temp___loop_entry_1461)

(declare-const ret1 map2)

(declare-const i1 Int)

;; "i'unused"
(define-fun iqtunused1 () int__ref
  (int__refqtmk i1))

;; "ret'unused"
(define-fun retqtunused1 () map__ref
  (map__refqtmk ret1))

;; "Assume"
(assert
  (= (and (ite (and
                 (dynamic_invariant1
                   (of_array ret1 (to_rep2 ret__first) (to_rep2 ret__last))
                   false
                   true
                   true
                   true)
                 (forall ((temp___1462 Int))
                   (=>
                     (and
                       (<= (to_rep2 ret__first) temp___1462)
                       (<= temp___1462 (to_rep2 ret__last)))
                     (=>
                       (or
                         (< temp___1454 temp___1462)
                         (or (< temp___1462 0) (<= i1 temp___1462)))
                       (= (get1 ret1 temp___1462) (get1 ret temp___1462))))))
            true
            false) (ite (and (<= 0 i1) (<= i1 (to_rep2 ret__last)))
                     true
                     false)) true))

(declare-const o7 Int)

;; "Ensures"
(assert (= (to_rep2 ret__last) o7))

;; "to_rep'result'unused"
(define-fun to_repqtresultqtunused5 () Int
  o7)

(declare-const o8 Int)

;; "Ensures"
(assert (= (to_rep2 ret__first) o8))

;; "to_rep'result'unused"
(define-fun to_repqtresultqtunused6 () Int
  o8)

;; "map__content'result'unused"
(define-fun map__contentqtresultqtunused2 () map2
  ret1)

;; "temp___1457"
(define-fun temp___1457 () us_t1
  (of_array ret1 o8 o7))

;; "of_array'result'unused"
(define-fun of_arrayqtresultqtunused2 () us_t1
  temp___1457)

;; "o"
(define-fun o9 () t1
  (rt1 temp___1457))

;; "rt'result'unused"
(define-fun rtqtresultqtunused () t1
  o9)

;; "int__content'result'unused"
(define-fun int__contentqtresultqtunused2 () Int
  i1)

;; "o"
(define-fun o10 () Int
  (first s))

;; "first'result'unused"
(define-fun firstqtresultqtunused () Int
  o10)

;; "o"
(define-fun o11 () Int
  (+ o10 i1))

;; "infix +'result'unused"
(define-fun infix_plqtresultqtunused () Int
  o11)

;; "Ensures"
(assert (in_range o11))

;; "range_check_'result'unused"
(define-fun range_check_qtresultqtunused () Int
  o11)

;; "Assert"
(assert (and (<= (first s) o11) (<= o11 (last s))))

;; "o"
(define-fun o12 () map1
  (to_array s))

;; "to_array'result'unused"
(define-fun to_arrayqtresultqtunused () map1
  o12)

;; "o"
(define-fun o13 () character
  (get o12 o11))

;; "get'result'unused"
(define-fun getqtresultqtunused () character
  o13)

(declare-const o14 Int)

;; "Ensures"
(assert (= (to_rep o13) o14))

;; "to_rep'result'unused"
(define-fun to_repqtresultqtunused7 () Int
  o14)

;; "o"
(define-fun o15 () (_ BitVec 8)
  ((_ int2bv 8) o14))

;; "of_int'result'unused"
(define-fun of_intqtresultqtunused () (_ BitVec 8)
  o15)

(declare-const o16 byte)

;; "Ensures"
(assert (= (to_rep3 o16) o15))

;; "of_rep'result'unused"
(define-fun of_repqtresultqtunused () byte
  o16)

;; "int__content'result'unused"
(define-fun int__contentqtresultqtunused3 () Int
  i1)

;; Goal "def'vc"
;; File "sparknacl.ads", line 128, characters 0-0
(assert
  (not (<= i1 o7)))

(check-sat)
